c nombre: 8
c densidad: 0.1
p edges 40 96
e 1 15
e 1 27
e 1 36
e 2 3
e 2 8
e 2 16
e 2 18
e 2 25
e 2 33
e 2 36
e 3 9
e 3 15
e 3 17
e 3 34
e 3 39
e 4 7
e 4 13
e 5 13
e 5 15
e 5 17
e 5 24
e 5 27
e 5 30
e 5 40
e 6 8
e 6 11
e 6 14
e 6 32
e 7 25
e 7 34
e 7 35
e 7 40
e 8 28
e 9 18
e 9 19
e 9 28
e 9 35
e 9 39
e 10 12
e 11 12
e 11 13
e 11 15
e 11 26
e 11 35
e 11 39
e 12 22
e 12 24
e 12 39
e 13 16
e 13 23
e 13 26
e 14 16
e 14 18
e 14 21
e 14 25
e 14 28
e 15 17
e 15 37
e 16 23
e 16 30
e 17 29
e 17 35
e 17 38
e 18 36
e 19 22
e 19 38
e 20 22
e 20 29
e 20 30
e 20 31
e 20 33
e 20 35
e 21 27
e 21 30
e 21 31
e 21 33
e 21 34
e 22 28
e 23 29
e 23 32
e 23 38
e 24 27
e 24 38
e 25 29
e 25 30
e 25 31
e 25 32
e 26 33
e 27 32
e 27 35
e 27 38
e 27 39
e 29 39
e 34 36
e 36 38
e 37 38
